12,1,12,2,13,1,7,3,8,3,14,3,8,4,3,3,9,3,3,4,4,3,4,4,1,3,1,4,8,5;8,1,14,2,6,2,7,4,2,2,2,3,6,4,10,4,15,4,10,5,6,5,5,4,5,5,1,5,9,5;11,1,11,2,2,1,8,2,15,1,3,1,4,1,6,3,5,1,1,2,9,4,11,5,12,5,7,5,3,5;14,1,7,2,9,1,1,1,9,2,3,2,11,4,10,3,15,3,12,4,2,4,5,3,13,2,13,3,13,4,13,5;10,1,7,1,6,1,11,3,10,2,12,3,15,2,4,2,5,2,14,4,15,5,14,5,2,5,4,5;
